p cnf 78 234
31 42 0
35 39 0
24 33 48 0
25 58 0
29 34 49 0
28 40 76 0
30 41 0
21 43 55 0
19 51 0
17 18 0
15 16 0
23 38 45 0
56 59 61 0
62 64 0
52 65 0
37 47 50 66 0
20 68 0
53 70 0
44 71 0
54 72 73 0
22 74 0
26 75 0
63 69 0
57 60 77 78 0
-14 -42 0
-33 -42 0
-14 -33 0
-38 -52 0
-38 -47 0
-47 -52 0
-44 -68 0
-68 -72 0
-44 -72 0
-38 -42 0
-42 -68 0
-38 -68 0
-14 -52 0
-14 -44 0
-44 -52 0
-33 -47 0
-33 -72 0
-47 -72 0
-13 -36 0
-35 -36 0
-12 -36 0
-24 -36 0
-13 -35 0
-12 -13 0
-13 -24 0
-12 -35 0
-24 -35 0
-12 -24 0
-11 -29 0
-29 -40 0
-29 -41 0
-29 -55 0
-11 -40 0
-11 -41 0
-11 -55 0
-40 -41 0
-40 -55 0
-41 -55 0
-56 -62 0
-10 -56 0
-56 -65 0
-50 -56 0
-10 -62 0
-62 -65 0
-50 -62 0
-10 -65 0
-10 -50 0
-50 -65 0
-46 -53 0
-9 -53 0
-53 -71 0
-53 -73 0
-9 -46 0
-46 -71 0
-46 -73 0
-9 -71 0
-9 -73 0
-71 -73 0
-26 -74 0
-69 -74 0
-67 -74 0
-74 -77 0
-26 -69 0
-26 -67 0
-26 -77 0
-67 -69 0
-69 -77 0
-67 -77 0
-29 -36 0
-36 -56 0
-36 -53 0
-36 -74 0
-29 -56 0
-29 -53 0
-29 -74 0
-53 -56 0
-56 -74 0
-53 -74 0
-11 -13 0
-13 -62 0
-13 -46 0
-13 -26 0
-11 -62 0
-11 -46 0
-11 -26 0
-46 -62 0
-26 -62 0
-26 -46 0
-35 -40 0
-10 -35 0
-9 -35 0
-35 -69 0
-10 -40 0
-9 -40 0
-40 -69 0
-9 -10 0
-10 -69 0
-9 -69 0
-12 -41 0
-12 -65 0
-12 -71 0
-12 -67 0
-41 -65 0
-41 -71 0
-41 -67 0
-65 -71 0
-65 -67 0
-67 -71 0
-24 -55 0
-24 -50 0
-24 -73 0
-24 -77 0
-50 -55 0
-55 -73 0
-55 -77 0
-50 -73 0
-50 -77 0
-73 -77 0
-8 -58 0
-21 -58 0
-8 -21 0
-23 -64 0
-23 -66 0
-64 -66 0
-6 -75 0
-6 -60 0
-60 -75 0
-23 -58 0
-6 -58 0
-6 -23 0
-8 -64 0
-8 -75 0
-64 -75 0
-21 -66 0
-21 -60 0
-60 -66 0
-28 -49 0
-5 -70 0
-49 -70 0
-5 -28 0
-4 -31 0
-31 -39 0
-31 -48 0
-4 -39 0
-4 -48 0
-39 -48 0
-19 -27 0
-17 -27 0
-15 -27 0
-17 -19 0
-15 -19 0
-15 -17 0
-45 -59 0
-7 -45 0
-37 -45 0
-7 -59 0
-37 -59 0
-7 -37 0
-22 -32 0
-32 -63 0
-32 -78 0
-22 -63 0
-22 -78 0
-63 -78 0
-27 -31 0
-31 -45 0
-31 -32 0
-27 -45 0
-27 -32 0
-32 -45 0
-4 -19 0
-4 -59 0
-4 -22 0
-19 -59 0
-19 -22 0
-22 -59 0
-17 -39 0
-7 -39 0
-39 -63 0
-7 -17 0
-17 -63 0
-7 -63 0
-15 -48 0
-37 -48 0
-48 -78 0
-15 -37 0
-15 -78 0
-37 -78 0
-30 -34 0
-3 -51 0
-34 -51 0
-3 -30 0
-25 -76 0
-25 -43 0
-43 -76 0
-2 -18 0
-2 -16 0
-16 -18 0
-1 -20 0
-20 -54 0
-1 -54 0
-2 -25 0
-20 -25 0
-2 -20 0
-18 -76 0
-1 -76 0
-1 -18 0
-16 -43 0
-43 -54 0
-16 -54 0
